Traveling Salesman Problem/TSP_generados/Aleatorio1621103269_7.tsp
NAME: Aleatorio1621103269_7.tsp
COMMENT: Randomly generated scenario
TYPE: TSP
DIMENSION: 7
EDGE_WEIGHT_TYPE: ATT
NODE_COORD_SECTION
1 3.5 38.71
2 41.48 49.54
3 19.49 9.7
4 27.0 7.93
5 8.45 8.05
6 28.59 17.12
7 13.44 3.21
