Traveling Salesman Problem/TSP_generados/Aleatorio1621103269_7.opt.tour
NAME: Aleatorio1621103269_7.opt.tour
COMMENT: Optimal solution for Aleatorio1621103269_7 (138.3059834454494)
TYPE: TOUR
DIMENSION: 7
TOUR_SECTION
1 5 7 3 4 6 2
-1
EOF
